c description: Perfect Matching Principle on 
c generator: CNFgen (0.9.0)
c copyright: (C) 2012-2020 Massimo Lauria <massimo.lauria@uniroma1.it>
c url: https://massimolauria.net/cnfgen
c
p cnf 60 252
-1 -2 0
-1 -3 0
-1 -4 0
-2 -3 0
-2 -4 0
-3 -4 0
1 2 3 4 0
-1 -5 0
-1 -6 0
-1 -7 0
-1 -8 0
-1 -9 0
-1 -10 0
-5 -6 0
-5 -7 0
-5 -8 0
-5 -9 0
-5 -10 0
-6 -7 0
-6 -8 0
-6 -9 0
-6 -10 0
-7 -8 0
-7 -9 0
-7 -10 0
-8 -9 0
-8 -10 0
-9 -10 0
1 5 6 7 8 9 10 0
-5 -11 0
-5 -12 0
-5 -13 0
-11 -12 0
-11 -13 0
-12 -13 0
5 11 12 13 0
-14 -15 0
-14 -16 0
-14 -17 0
-15 -16 0
-15 -17 0
-16 -17 0
14 15 16 17 0
-6 -18 0
-6 -19 0
-6 -20 0
-6 -21 0
-18 -19 0
-18 -20 0
-18 -21 0
-19 -20 0
-19 -21 0
-20 -21 0
6 18 19 20 21 0
-11 -22 0
-11 -23 0
-11 -24 0
-11 -25 0
-22 -23 0
-22 -24 0
-22 -25 0
-23 -24 0
-23 -25 0
-24 -25 0
11 22 23 24 25 0
-26 -27 0
-26 -28 0
-26 -29 0
-26 -30 0
-27 -28 0
-27 -29 0
-27 -30 0
-28 -29 0
-28 -30 0
-29 -30 0
26 27 28 29 30 0
-31 -32 0
-31 -33 0
-32 -33 0
31 32 33 0
-34 -35 0
34 35 0
-22 -26 0
-22 -36 0
-22 -37 0
-22 -38 0
-22 -39 0
-26 -36 0
-26 -37 0
-26 -38 0
-26 -39 0
-36 -37 0
-36 -38 0
-36 -39 0
-37 -38 0
-37 -39 0
-38 -39 0
22 26 36 37 38 39 0
-23 -40 0
-23 -41 0
-40 -41 0
23 40 41 0
-27 -42 0
27 42 0
-2 -43 0
-2 -44 0
-2 -45 0
-43 -44 0
-43 -45 0
-44 -45 0
2 43 44 45 0
-43 -46 0
43 46 0
47 0
-18 -28 0
-18 -40 0
-18 -48 0
-18 -49 0
-18 -50 0
-28 -40 0
-28 -48 0
-28 -49 0
-28 -50 0
-40 -48 0
-40 -49 0
-40 -50 0
-48 -49 0
-48 -50 0
-49 -50 0
18 28 40 48 49 50 0
-7 -47 0
-7 -48 0
-47 -48 0
7 47 48 0
-29 -36 0
-29 -44 0
-29 -51 0
-36 -44 0
-36 -51 0
-44 -51 0
29 36 44 51 0
-8 -14 0
-8 -24 0
-8 -31 0
-8 -34 0
-8 -49 0
-8 -52 0
-14 -24 0
-14 -31 0
-14 -34 0
-14 -49 0
-14 -52 0
-24 -31 0
-24 -34 0
-24 -49 0
-24 -52 0
-31 -34 0
-31 -49 0
-31 -52 0
-34 -49 0
-34 -52 0
-49 -52 0
8 14 24 31 34 49 52 0
-15 -53 0
-15 -54 0
-53 -54 0
15 53 54 0
-32 -35 0
-32 -45 0
-32 -46 0
-32 -55 0
-35 -45 0
-35 -46 0
-35 -55 0
-45 -46 0
-45 -55 0
-46 -55 0
32 35 45 46 55 0
-3 -53 0
-3 -55 0
-3 -56 0
-3 -57 0
-53 -55 0
-53 -56 0
-53 -57 0
-55 -56 0
-55 -57 0
-56 -57 0
3 53 55 56 57 0
-12 -37 0
-12 -41 0
-12 -50 0
-37 -41 0
-37 -50 0
-41 -50 0
12 37 41 50 0
-16 -52 0
16 52 0
-19 -58 0
19 58 0
-33 -54 0
33 54 0
-30 -38 0
-30 -56 0
-30 -59 0
-38 -56 0
-38 -59 0
-56 -59 0
30 38 56 59 0
-17 -39 0
-17 -51 0
-17 -58 0
-39 -51 0
-39 -58 0
-51 -58 0
17 39 51 58 0
-4 -9 0
-4 -13 0
-4 -20 0
-4 -42 0
-4 -57 0
-4 -59 0
-4 -60 0
-9 -13 0
-9 -20 0
-9 -42 0
-9 -57 0
-9 -59 0
-9 -60 0
-13 -20 0
-13 -42 0
-13 -57 0
-13 -59 0
-13 -60 0
-20 -42 0
-20 -57 0
-20 -59 0
-20 -60 0
-42 -57 0
-42 -59 0
-42 -60 0
-57 -59 0
-57 -60 0
-59 -60 0
4 9 13 20 42 57 59 60 0
-10 -21 0
-10 -25 0
-10 -60 0
-21 -25 0
-21 -60 0
-25 -60 0
10 21 25 60 0